qbf_easy_train/easy_3162_SAT.qdimacs
p cnf 32 93
a 2 10 23 0
e 1 3 4 5 6 7 8 9 11 12 13 14 15 16 17 18 19 20 21 22 24 25 26 27 28 29 30 31 32 0
-1 -2 -3 0
1 2 -3 0
-1 2 3 0
1 -2 3 0
-3 4 0
3 4 0
4 -5 -6 0
-4 5 -6 0
4 5 6 0
-4 -5 6 0
-7 -2 0
-7 -1 0
2 1 7 0
8 2 0
8 2 0
-2 -8 0
-9 7 0
-9 -8 0
-7 8 9 0
-6 -9 -10 0
6 9 -10 0
-6 9 10 0
6 -9 10 0
1 12 -13 0
-1 -12 -13 0
1 -12 13 0
-1 12 13 0
-11 -13 -14 0
11 13 -14 0
-11 13 14 0
11 -13 14 0
-15 -1 -16 0
15 1 -16 0
-15 1 16 0
15 -1 16 0
18 -16 0
18 17 0
16 -17 -18 0
20 -18 0
20 19 0
18 -19 -20 0
16 -7 -21 0
-16 7 -21 0
16 7 21 0
-16 -7 21 0
22 19 0
22 11 0
-19 -11 -22 0
22 1 -23 0
-22 -1 -23 0
22 -1 23 0
-22 1 23 0
-24 13 0
-24 -23 0
-13 23 24 0
21 24 -25 0
-21 -24 -25 0
21 -24 25 0
-21 24 25 0
26 -15 0
26 -1 0
15 1 -26 0
27 25 0
27 -26 0
-25 26 -27 0
-23 2 -28 0
23 -2 -28 0
-23 -2 28 0
23 2 28 0
27 -28 -29 0
-27 28 -29 0
27 28 29 0
-27 -28 29 0
-30 -20 0
-30 29 0
20 -29 30 0
-14 -30 -31 0
14 30 -31 0
-14 30 31 0
14 -30 31 0
-10 -31 -32 0
10 31 -32 0
-10 31 32 0
10 -31 32 0
32 20 27 0
29 32 14 0
-20 -32 24 2 -6 -17 0
-25 18 -11 -21 0
-23 -17 30 25 28 0
28 -26 -21 0
19 21 14 0
-30 19 4 5 0
32 0
