sat_easy_train/easy_3162_SAT.dimacs
p cnf 121 395
-4 -2 0
-4 3 0
2 -3 4 0
-5 -1 0
-5 -4 0
1 4 5 0
8 7 0
8 -1 0
-7 1 -8 0
-6 -8 -9 0
6 8 -9 0
-6 8 9 0
6 -8 9 0
10 9 0
10 -2 0
-9 2 -10 0
10 11 -12 0
-10 -11 -12 0
10 -11 12 0
-10 11 12 0
-13 -5 0
-13 12 0
5 -12 13 0
11 -14 -15 0
-11 14 -15 0
11 14 15 0
-11 -14 15 0
18 17 0
18 -16 0
-17 16 -18 0
19 -16 0
19 18 0
16 -18 -19 0
-21 -19 0
-21 -20 0
19 20 21 0
-22 -8 0
-22 16 0
8 -16 22 0
-24 -6 0
-24 -7 0
6 7 24 0
23 24 -25 0
-23 -24 -25 0
23 -24 25 0
-23 24 25 0
-26 -9 0
-26 25 0
9 -25 26 0
-27 11 0
-27 -26 0
-11 26 27 0
-16 -27 -28 0
16 27 -28 0
-16 27 28 0
16 -27 28 0
-22 -28 -29 0
22 28 -29 0
-22 28 29 0
22 -28 29 0
30 -21 0
30 -29 0
21 29 -30 0
31 -32 -33 0
-31 32 -33 0
31 32 33 0
-31 -32 33 0
36 -34 0
36 35 0
34 -35 -36 0
37 36 0
37 -36 0
-38 33 0
-38 37 0
-33 -37 38 0
7 38 -39 0
-7 -38 -39 0
7 -38 39 0
-7 38 39 0
30 -39 -40 0
-30 39 -40 0
30 39 40 0
-30 -39 40 0
41 11 0
41 3 0
-11 -3 -41 0
-42 3 0
-42 23 0
-3 -23 42 0
43 -38 0
43 42 0
38 -42 -43 0
-41 -43 -44 0
41 43 -44 0
-41 43 44 0
41 -43 44 0
-40 -44 -45 0
40 44 -45 0
-40 44 45 0
40 -44 45 0
46 15 0
46 -45 0
-15 45 -46 0
-47 20 0
-47 -21 0
-20 21 47 0
49 47 0
49 48 0
-47 -48 -49 0
-50 -24 0
-50 -28 0
24 28 50 0
-50 -8 -51 0
50 8 -51 0
-50 8 51 0
50 -8 51 0
-7 -35 -52 0
7 35 -52 0
-7 35 52 0
7 -35 52 0
-53 52 0
-53 -23 0
-52 23 53 0
-54 17 0
-54 53 0
-17 -53 54 0
-55 -51 0
-55 -54 0
51 54 55 0
-56 -11 0
-56 -7 0
11 7 56 0
-57 -31 0
-57 56 0
31 -56 57 0
-55 -57 -58 0
55 57 -58 0
-55 57 58 0
55 -57 58 0
49 58 -59 0
-49 -58 -59 0
49 -58 59 0
-49 58 59 0
-46 -59 -60 0
46 59 -60 0
-46 59 60 0
46 -59 60 0
-61 13 0
-61 -60 0
-13 60 61 0
62 -23 0
62 26 0
23 -26 -62 0
63 -34 0
63 -62 0
34 62 -63 0
3 9 -64 0
-3 -9 -64 0
3 -9 64 0
-3 9 64 0
-65 63 0
-65 -64 0
-63 64 65 0
66 16 0
66 62 0
-16 -62 -66 0
67 -53 0
67 19 0
53 -19 -67 0
68 64 0
68 -67 0
-64 67 -68 0
-69 -11 0
-69 -56 0
11 56 69 0
-70 -20 0
-70 69 0
20 -69 70 0
71 -68 0
71 -70 0
68 70 -71 0
-66 -71 -72 0
66 71 -72 0
-66 71 72 0
66 -71 72 0
65 72 -73 0
-65 -72 -73 0
65 -72 73 0
-65 72 73 0
-34 -8 -74 0
34 8 -74 0
-34 8 74 0
34 -8 74 0
-75 74 0
-75 -48 0
-74 48 75 0
76 -73 0
76 -75 0
73 75 -76 0
-77 -6 0
-77 38 0
6 -38 77 0
78 -33 0
78 77 0
33 -77 -78 0
-79 -36 0
-79 25 0
36 -25 79 0
-80 -78 0
-80 79 0
78 -79 80 0
-76 -80 -81 0
76 80 -81 0
-76 80 81 0
76 -80 81 0
82 -20 0
82 -31 0
20 31 -82 0
83 -19 0
83 -82 0
19 82 -83 0
84 -20 0
84 83 0
20 -83 -84 0
10 -33 -85 0
-10 33 -85 0
10 33 85 0
-10 -33 85 0
86 -85 0
86 32 0
85 -32 -86 0
-87 11 0
-87 -86 0
-11 86 87 0
-88 -87 0
-88 -3 0
87 3 88 0
-89 25 0
-89 -74 0
-25 74 89 0
-90 -88 0
-90 89 0
88 -89 90 0
-8 -42 -91 0
8 42 -91 0
-8 42 91 0
8 -42 91 0
-92 -32 0
-92 -52 0
32 52 92 0
93 91 0
93 92 0
-91 -92 -93 0
-94 -90 0
-94 -93 0
90 93 94 0
95 84 0
95 94 0
-84 -94 -95 0
96 -81 0
96 95 0
81 -95 -96 0
97 -10 0
97 -36 0
10 36 -97 0
98 -24 0
98 -22 0
24 22 -98 0
-99 97 0
-99 98 0
-97 -98 99 0
100 -22 0
100 16 0
22 -16 -100 0
-101 37 0
-101 56 0
-37 -56 101 0
102 22 0
102 -101 0
-22 101 -102 0
103 100 0
103 -102 0
-100 102 -103 0
99 -103 -104 0
-99 103 -104 0
99 103 104 0
-99 -103 104 0
105 2 0
105 -16 0
-2 16 -105 0
106 31 0
106 100 0
-31 -100 -106 0
-107 -105 0
-107 -106 0
105 106 107 0
-104 -107 -108 0
104 107 -108 0
-104 107 108 0
104 -107 108 0
-109 -37 0
-109 -85 0
37 85 109 0
26 -109 -110 0
-26 109 -110 0
26 109 110 0
-26 -109 110 0
1 48 -111 0
-1 -48 -111 0
1 -48 111 0
-1 48 111 0
110 111 -112 0
-110 -111 -112 0
110 -111 112 0
-110 111 112 0
-113 -25 0
-113 -27 0
25 27 113 0
114 -112 0
114 113 0
112 -113 -114 0
-115 -82 0
-115 -74 0
82 74 115 0
116 -114 0
116 -115 0
114 115 -116 0
117 108 0
117 116 0
-108 -116 -117 0
-118 100 0
-118 69 0
-100 -69 118 0
119 -117 0
119 118 0
117 -118 -119 0
120 -96 0
120 -119 0
96 119 -120 0
-61 120 -121 0
61 -120 -121 0
-61 -120 121 0
61 120 121 0
-34 56 87 -35 -79 0
-97 42 19 -90 84 -60 0
-46 76 -25 0
69 95 64 0
117 94 -54 62 -29 -82 0
-118 4 40 -59 -71 74 0
121 28 0
-13 -15 71 -58 89 -10 0
73 119 0
32 -50 -63 54 34 0
83 -46 33 44 51 0
-81 -57 -76 -78 0
74 108 -45 0
33 45 0
-77 101 -50 60 -47 12 0
-17 2 -62 -30 0
-54 10 56 0
58 65 -36 0
79 -16 0
2 -119 65 -12 -33 88 0
46 -66 61 -42 114 18 0
-13 -18 56 0
-118 57 44 0
96 -17 41 0
-10 115 -4 -93 -49 0
-19 -56 117 -61 39 -6 0
-8 -29 32 59 22 -116 0
-79 -83 19 -25 0
-43 83 -62 0
51 -44 0
-50 -64 -101 2 0
117 39 -86 -106 -97 0
38 -42 68 -5 0
-15 39 -61 -48 26 0
-54 -105 4 8 -44 0
-81 -101 -115 -2 4 93 0
115 16 -111 0
-69 7 -81 -109 32 0
-10 1 -72 75 51 0
55 102 0
-41 -17 71 -84 0
-52 -56 69 -78 -13 0
10 71 30 106 -38 0
29 115 -11 79 -45 0
13 53 -54 -16 -100 102 0
110 -57 106 0
-28 -99 -20 53 0
34 10 -94 42 -2 -113 0
71 -64 0
98 -118 -22 -99 55 0
5 -9 -50 -108 79 0
121 0
